width,height
25,5
6,4
10,3
7,1
1,2
6,1
7,1
1,5
7,4
4,5
7,1
9,2
7,5
6,5
8,2
5,1
9,5
1,5
4,1
10,4
5,2
2,4
6,1
8,5
8,5
4,2
3,3
8,4
2,3
4,4
8,1
3,2
6,4
8,5
2,2
2,1
10,1
5,4
4,5
5,1
8,4
9,3
10,5
7,3
6,5
3,5
10,1
3,3
9,2
5,3
4,3
10,5
4,2
2,2
1,5
9,1
3,2
2,2
2,3
5,2
8,3
10,2
8,3
3,3
10,5
10,5
1,2
9,3
8,2
9,1
9,2
4,4
10,1
6,5
4,1
2,3
5,2
8,4
4,2
3,5
4,3
5,5
5,5
10,3
6,5
4,5
1,1
7,2
10,2
4,2
8,1
3,5
1,2
8,4
1,5
5,1
9,2
6,2
5,3
7,4
1,3
